WARNING: for repeatability, setting FPU to use double precision
============================[ Problem Statistics ]=============================
|                                                                             |
|  Number of variables:           100                                         |
|  Number of clauses:             449                                         |
|  Parse time:                   0.00 s                                       |
|  Simplification time:          0.00 s                                       |
|                                                                             |
============================[ Search Statistics ]==============================
| Conflicts |          ORIGINAL         |          LEARNT          | Progress |
|           |    Vars  Clauses Literals |    Limit  Clauses Lit/Cl |          |
===============================================================================
===============================================================================
restarts              : 1
conflicts             : 39             (22147 /sec)
decisions             : 70             (0.00 % random) (39750 /sec)
propagations          : 999            (567291 /sec)
conflict literals     : 266            (12.50 % deleted)
Memory used           : 13.00 MB
CPU time              : 0.001761 s

SATISFIABLE
